Timesteps: 1
s UNSATISFIABLE
real 0.10
user 0.01
sys 0.00
Timesteps: 2
s UNSATISFIABLE
real 0.11
user 0.02
sys 0.00
Timesteps: 3
s UNSATISFIABLE
real 0.13
user 0.05
sys 0.00
Timesteps: 4
s UNSATISFIABLE
real 0.16
user 0.07
sys 0.00
Timesteps: 5
s UNSATISFIABLE
real 0.23
user 0.15
sys 0.00
Timesteps: 6
s UNSATISFIABLE
real 0.43
user 0.33
sys 0.01
Timesteps: 7
s UNSATISFIABLE
real 0.80
user 0.70
sys 0.00
Timesteps: 8
s UNSATISFIABLE
real 0.62
user 0.50
sys 0.01
Timesteps: 9
s UNSATISFIABLE
real 3.15
user 3.00
sys 0.01
Timesteps: 10
s UNSATISFIABLE
real 4.65
user 4.46
sys 0.01
Timesteps: 11
s UNSATISFIABLE
real 5.39
user 5.20
sys 0.02
Timesteps: 12
s UNSATISFIABLE
real 10.71
user 10.47
sys 0.02
Timesteps: 13
s UNSATISFIABLE
real 10.70
user 10.44
sys 0.02
Timesteps: 14
s UNSATISFIABLE
real 11.32
user 11.05
sys 0.04
Timesteps: 15
s UNSATISFIABLE
real 9.57
user 9.30
sys 0.04
Timesteps: 16
s UNSATISFIABLE
real 10.38
user 10.08
sys 0.04
Timesteps: 17
s UNSATISFIABLE
real 13.41
user 13.07
sys 0.05
Timesteps: 18
s UNSATISFIABLE
real 16.66
user 16.30
sys 0.05
Timesteps: 19
s UNSATISFIABLE
real 19.08
user 18.68
sys 0.07
Timesteps: 20
s UNSATISFIABLE
real 25.15
user 24.73
sys 0.06
Timesteps: 21
s UNSATISFIABLE
real 36.44
user 35.90
sys 0.10
Timesteps: 22
s UNSATISFIABLE
real 47.34
user 46.77
sys 0.10
Timesteps: 23
s UNSATISFIABLE
real 55.92
user 55.24
sys 0.12
Timesteps: 24
s UNSATISFIABLE
real 85.21
user 84.39
sys 0.16
Timesteps: 25
s UNSATISFIABLE
real 101.66
user 100.71
sys 0.18
Timesteps: 26
s UNSATISFIABLE
real 157.36
user 156.07
sys 0.21
Timesteps: 27
s UNSATISFIABLE
real 205.85
user 204.40
sys 0.26
Timesteps: 28
s UNSATISFIABLE
real 268.11
user 266.29
sys 0.35
Timesteps: 29
s UNSATISFIABLE
real 436.47
user 433.94
sys 0.44
Timesteps: 30
s UNSATISFIABLE
real 665.40
user 661.82
sys 0.64
Timesteps: 31
s UNSATISFIABLE
real 926.44
user 921.56
sys 0.78
Timesteps: 32
